Creating DSP environment
Reading SMPS files: /blues/gpfs/home/choy/Siplib/experiment/FULL_INSTANCE/SSLP/LP2/SSLP_10_50_2000_LP2
Coin0001I At line 1 NAME          SSLP_10_50_2000_LP2
Coin0001I At line 2 ROWS
Coin0001I At line 65 COLUMNS
Coin0001I At line 1079 RHS
Coin0001I At line 1111 BOUNDS
Coin0001I At line 1622 ENDATA
Coin0002I Problem SSLP_10_50_2000_LP2 has 61 rows, 520 columns and 1011 elements
Coin0001I At line 1 TIME          SSLP_10_50_2000_LP2
Coin0001I At line 2 PERIODS       IMPLICIT
Coin0001I At line 5 ENDATA

Coin0001I At line 1 STOCH         SSLP_10_50_2000_LP2
Coin0001I At line 2 SCENARIOS     DISCRETE
Coin0001I At line 1014025 ENDATA
Read SMPS files: 0.394648 sec.
Reading parameter files: /blues/gpfs/home/choy/Siplib/experiment/solver_parameters/param_LP2_DSP_de.txt
CPX0000  CPXPARAM_Advance                                 0
CPX0000  CPXPARAM_TimeLimit                               3600
CPX0000  CPXPARAM_Threads                                 36
CPX0000  CPXPARAM_MIP_Limits_Nodes                        100000000
CPX0000  Found incumbent of value 199855.044500 after 0.09 sec. (64.59 ticks)
CPX0000  Tried aggregator 1 time.
CPX0000  MIP Presolve eliminated 49716 rows and 500954 columns.
CPX0000  MIP Presolve modified 40000 coefficients.
CPX0000  Reduced MIP has 70285 rows, 519056 columns, and 1022527 nonzeros.
CPX0000  Reduced MIP has 10 binaries, 0 generals, 0 SOSs, and 0 indicators.
CPX0000  Presolve time = 0.74 sec. (606.85 ticks)
CPX0000  Tried aggregator 1 time.
CPX0000  Reduced MIP has 70285 rows, 519056 columns, and 1022527 nonzeros.
CPX0000  Reduced MIP has 10 binaries, 0 generals, 0 SOSs, and 0 indicators.
CPX0000  Presolve time = 0.88 sec. (497.97 ticks)
CPX0000  Probing time = 0.07 sec. (12.15 ticks)
CPX0000  MIP emphasis: balance optimality and feasibility.
CPX0000  MIP search method: dynamic search.
CPX0000  Parallel mode: deterministic, using up to 36 threads.
CPX0000  Root relaxation solution time = 8.08 sec. (4716.43 ticks)
CPX0000
CPX0000          Nodes                                         Cuts/
CPX0000     Node  Left     Objective  IInf  Best Integer    Best Bound    ItCnt     Gap
CPX0000
CPX0000  *     0+    0                       199855.0445    -3126.4145           101.56%
CPX0000  *     0+    0                        52714.1425    -3126.4145           105.93%
CPX0000        0     0     -512.0783    10    52714.1425     -512.0783       42  100.97%
CPX0000  *     0+    0                           81.3170     -512.0783           729.73%
CPX0000        0     0     -491.1164    10       81.3170   Cuts: 10000    38628  703.95%
CPX0000        0     0     -478.0286    10       81.3170    Cuts: 9926    70947  687.86%
CPX0000        0     0     -472.3092    10       81.3170    Cuts: 9711   105693  680.82%
CPX0000  *     0+    0                         -305.4770     -472.3092            54.61%
CPX0000        0     0     -465.3599    10     -305.4770    Cuts: 9610   146625   52.34%
CPX0000  *     0+    0                         -349.7060     -465.3599            33.07%
CPX0000        0     0     -453.5677    10     -349.7060    Cuts: 9629   208789   26.63%
CPX0000        0     0     -443.8267    10     -349.7060    Cuts: 9670   262552   26.63%
CPX0000        0     0     -435.2403    10     -349.7060    Cuts: 9772   319781   24.15%
CPX0000        0     0        cutoff           -349.7060     -349.7060   378652    0.00%
CPX0000  Elapsed time = 1679.37 sec. (1360838.66 ticks, tree = 0.01 MB
CPX0000
CPX0000  Flow cuts applied:  25466
CPX0000  Mixed integer rounding cuts applied:  37613
CPX0000
CPX0000  Root node processing (before b&c):
CPX0000    Real time             = 1679.45 sec. (1360907.04 ticks)
CPX0000  Parallel b&c, 36 threads:
CPX0000    Real time             =    0.00 sec. (0.00 ticks)
CPX0000    Sync time (average)   =    0.00 sec.
CPX0000    Wait time (average)   =    0.00 sec.
CPX0000                            ------------
CPX0000  Total (root+branch&cut) = 1679.45 sec. (1360907.04 ticks)
Status: 3000
Primal Bound: -349.706
Dual Bound  : -349.706
